job_count = 14 ;
duration = [|19, 26, 14, 9|37, 8, 4, 4|39, 9, 3, 7|15, 15, 19, 7|28, 25, 9, 2|26, 3, 13, 6|11, 13, 14, 6|5, 23, 17, 7|36, 22, 13, 9|23, 26, 2, 1|34, 28, 4, 1|14, 27, 7, 9|7, 19, 9, 2|12, 12, 12, 3|] ;
machine_count = 4 ;
cost = [|16, 34, 45, 40|16, 36, 47, 44|12, 33, 46, 47|12, 31, 44, 49|18, 31, 39, 78|15, 29, 30, 68|15, 20, 41, 52|14, 34, 41, 79|15, 21, 47, 69|14, 20, 41, 71|14, 32, 47, 69|15, 37, 47, 77|15, 29, 59, 77|12, 21, 40, 79|] ;
deadline = [29, 29, 29, 29, 29, 29, 29, 29, 29, 29, 29, 29, 29, 29] ;
release = [0, 0, 0, 0, 0, 0, 0, 0, 0, 0, 0, 0, 0, 0] ;
resource = [|3, 3, 3, 3|4, 4, 4, 4|1, 1, 1, 1|2, 2, 2, 2|4, 4, 4, 4|8, 8, 8, 8|7, 7, 7, 7|1, 1, 1, 1|7, 7, 7, 7|2, 2, 2, 2|4, 4, 4, 4|9, 9, 9, 9|5, 5, 5, 5|1, 1, 1, 1|] ;
capacities = [10, 10, 10, 10] ;
